proyfinal/src/viki/013/experimentInOfficeAgust.take6.output/448b72e9-4cfd-42e3-bb83-5b2e0399233f.als.dat
{'cnf.clauses': '118081',
 'cnf.totvars': '69608',
 'conflict literals': '1',
 'conflicts': '2',
 'decisions': '845',
 'memused.mb': '15.39',
 'outcome': 'UNSAT',
 'propagations': '18975',
 'restarts': '1',
 'solver.msecs': 29,
 'task.msecs': 75}
