proyfinal/src/viki/013/experimentInOfficeAgust.take6.output/448b72e9-4cfd-42e3-bb83-5b2e0399233f.als.out
Reading from standard input... Use '--help' for help.
============================[ Problem Statistics ]=============================
|                                                                             |
|  Number of variables:         69608                                         |
|  Number of clauses:          118081                                         |
|  Parse time:                   0.02 s                                       |
|                                                                             |
============================[ Search Statistics ]==============================
| Conflicts |          ORIGINAL         |          LEARNT          | Progress |
|           |    Vars  Clauses Literals |    Limit  Clauses Lit/Cl |          |
===============================================================================
===============================================================================
restarts              : 1
conflicts             : 2              (69 /sec)
decisions             : 845            (0.00 % random) (29041 /sec)
propagations          : 18975          (652129 /sec)
conflict literals     : 1              (0.00 % deleted)
Memory used           : 15.39 MB
CPU time              : 0.029097 s

UNSATISFIABLE
